=1
=2
=0IBM ILOG CPLEX   42.1.0 cb854401 Feb 1, 2023           LEG x86 64bit/Linux    
=1
--- GAMS/Cplex licensed for continuous and discrete problems.
=2
=C
=1
=CReading parameter(s) from "/storage/home/ejm6426/scratch/scRBA/parameterization/kapp/datasets/Yu2021_chemoClimNH4_010_using_rtRBA_methods/min_flux_violation/cplex.opt"
=C>>  optcr = 1E-12
=C>>  optca = 1E-12
=C>>  eprhs = 1E-9
=C>> 
=CFinished reading from "/storage/home/ejm6426/scratch/scRBA/parameterization/kapp/datasets/Yu2021_chemoClimNH4_010_using_rtRBA_methods/min_flux_violation/cplex.opt"
=2
=C
=1
--- GMO setup time: 0.00s
=2
=1
--- Space for names approximately 0.48 Mb
=2
=1
--- Use option 'names no' to turn use of names off
=2
=1
--- GMO memory 5.78 Mb (peak 5.86 Mb)
=2
=1
--- Dictionary memory 0.00 Mb
=2
=1
--- Cplex 22.1.1.0 link memory 0.26 Mb (peak 1.90 Mb)
=2
=1
--- Starting Cplex
=2
=C
Version identifier: 22.1.1.0 | 2022-11-28 | 9160aff4d
CPXPARAM_Advance                                 2
CPXPARAM_Threads                                 1
CPXPARAM_MIP_Display                             4
CPXPARAM_MIP_Pool_Capacity                       0
CPXPARAM_Simplex_Limits_Iterations               1000000
CPXPARAM_Simplex_Tolerances_Feasibility          1.0000000000000001e-09
CPXPARAM_TimeLimit                               1000000
CPXPARAM_MIP_Tolerances_AbsMIPGap                9.9999999999999998e-13
CPXPARAM_MIP_Tolerances_MIPGap                   9.9999999999999998e-13
Tried aggregator 1 time.
LP Presolve eliminated 2208 rows and 6990 columns.
Aggregator did 1400 substitutions.
Reduced LP has 981 rows, 2294 columns, and 19011 nonzeros.
Presolve time = 0.02 sec. (17.69 ticks)

Iteration log . . .
Iteration:     1   Scaled dual infeas =        176500.170553
Iteration:    62   Scaled dual infeas =        176466.581247
Iteration:   128   Scaled dual infeas =        154944.283693
Iteration:   216   Scaled dual infeas =        154933.335739
Iteration:   303   Scaled dual infeas =        141127.488813
Iteration:   416   Scaled dual infeas =         71670.044328
Iteration:   539   Scaled dual infeas =         11179.819069
Iteration:   660   Scaled dual infeas =          8375.631327
Iteration:   767   Scaled dual infeas =          1066.833526
Iteration:   874   Dual objective     = -72261883557857.359375
Iteration:  1019   Dual objective     = -2034192927402.794434
Perturbation started.
Iteration:  1076   Dual objective     = -1598014702145.255371
Iteration:  1214   Dual objective     = -244277375768.656189
Iteration:  1314   Dual objective     =  -84503289961.703812
Iteration:  1413   Dual objective     =  -12051811425.714701
Iteration:  1496   Dual objective     =   -2232178843.310971
Iteration:  1588   Dual objective     =       3974077.879890
Iteration:  1663   Dual objective     =       4954969.756294
Iteration:  1743   Dual objective     =       5761055.036112
Iteration:  1819   Dual objective     =       6881499.371232
Iteration:  1901   Dual objective     =       9250653.358664
Iteration:  1984   Dual objective     =      10235773.808652
Markowitz threshold set to 0.1
Iteration:  2031   Dual objective     =      11726332.306734
Iteration:  2117   Dual objective     =      12350929.099744
Iteration:  2185   Dual objective     =      12807436.527276
Iteration:  2309   Dual objective     =      12809198.557164
Removing perturbation.
=C
=1
--- LP status (3): infeasible.
=2
=1
--- Cplex Time: 0.29sec (det. 194.77 ticks)

=2
=C
=CModel has been proven infeasible
=C
